
Gurobi 11.0.1 (win64) logging started Mon May 13 15:45:18 2024

Set parameter LogFile to value "output/solver_log32.txt"
Gurobi Optimizer version 11.0.1 build v11.0.1rc0 (win64 - Windows 11.0 (22631.2))

CPU model: 11th Gen Intel(R) Core(TM) i7-1165G7 @ 2.80GHz, instruction set [SSE2|AVX|AVX2|AVX512]
Thread count: 4 physical cores, 8 logical processors, using up to 8 threads

Optimize a model with 2398 rows, 516 columns and 44523 nonzeros
Model fingerprint: 0x4839ca8f
Variable types: 248 continuous, 268 integer (268 binary)
Coefficient statistics:
  Matrix range     [4e-01, 1e+05]
  Objective range  [1e+00, 1e+02]
  Bounds range     [1e+00, 1e+00]
  RHS range        [1e-02, 1e+05]

User MIP start produced solution with objective 77744.9 (0.00s)
User MIP start produced solution with objective 77744.9 (0.00s)
Loaded user MIP start with objective 77744.9

Presolve removed 159 rows and 146 columns
Presolve time: 0.05s
Presolved: 2239 rows, 370 columns, 43046 nonzeros
Variable types: 229 continuous, 141 integer (138 binary)

Root relaxation: objective 7.790452e+04, 534 iterations, 0.03 seconds (0.06 work units)

    Nodes    |    Current Node    |     Objective Bounds      |     Work
 Expl Unexpl |  Obj  Depth IntInf | Incumbent    BestBd   Gap | It/Node Time

     0     0 77904.5223    0    3 77744.9109 77904.5223  0.21%     -    0s
     0     0 77904.5223    0    3 77744.9109 77904.5223  0.21%     -    0s
     0     0 77904.5223    0    3 77744.9109 77904.5223  0.21%     -    0s
     0     0 77904.5223    0    3 77744.9109 77904.5223  0.21%     -    0s
     0     2 77904.5223    0    3 77744.9109 77904.5223  0.21%     -    0s
*   17    16               5    77904.522257 77904.5223  0.00%  14.0    0s

Explored 19 nodes (1380 simplex iterations) in 0.62 seconds (0.85 work units)
Thread count was 8 (of 8 available processors)

Solution count 3: 77904.5 77904.5 77744.9 

Optimal solution found (tolerance 1.00e-04)
Best objective 7.790452225654e+04, best bound 7.790452225654e+04, gap 0.0000%
